



































































































39 69 48 70 2 
73 57 61 75 55 
21 29 19 33 18 
46 25 43 4 0 76 
41 14 58 38 59 
15 17 5 67 51 
47 72 68 54 71 
16 22 34 11 24 26 
35 60 63 74 7 53 
1 37 23 12 66 31 
36 10 3 50 20 
52 27 28 9 64 65 
42 56 44 6 49 
40 62 45 
32 8 30 13 
